p cnf 21 13
-1 -2 11 -15 -17 -19 -20 -21 0 
-3 12 -13 -16 -18 0 
-4 13 -12 -16 -18 0 
-5 14 -12 -13 -16 -18 0 
-1 15 -11 -17 -19 -20 -21 0 
-1 16 -12 -13 -18 0 
-1 17 -11 -15 -19 -20 -21 0 
-6 14 -12 -13 -16 -18 0 
-7 -8 14 -12 -13 -16 -18 0 
-1 -9 -10 18 -12 -13 -16 0 
-1 19 -11 -15 -17 -20 -21 0 
-1 20 -11 -15 -17 -19 -21 0 
-1 21 -11 -15 -17 -19 -20 0 
